# Objective value = 99
WA1n 0
WA1p 0
WA2n 0
WA2p 1
WB1n 0
WB1p 0
WB2n 0
WB2p 1
WC1n 0
WC1p 1
WD1n 0
WD1p 1
WE1n 0
WE1p 2
WF1n 0
WF1p 2
WG1n 0
WG1p 4
WH1n 0
WH1p 4
WI1n 0
WI1p 8
WJ1n 0
WJ1p 8
WK1n 0
WK1p 16
WL1n 0
WL1p 16
WT1n 0
WT1p 31
WT2n 0
WT2p 1
5 7
a 0
b 1
c 0
d 1
e 1
f 1
g 1
h 1
i 1
j 1
k 1
l 1
m 1
n 1
o 1
p 1
